
Gurobi 6.5.1 (mac64) logging started Wed Jun 22 15:22:18 2016


Gurobi 6.5.1 (mac64) logging started Wed Jun 22 15:29:38 2016


Gurobi 6.5.1 (mac64) logging started Wed Jun 22 15:33:55 2016


Gurobi 6.5.1 (mac64) logging started Wed Jun 22 15:34:16 2016


Gurobi 6.5.1 (mac64) logging started Wed Jun 22 15:34:33 2016


Gurobi 6.5.1 (mac64) logging started Wed Jun 22 15:34:39 2016


Gurobi 6.5.1 (mac64) logging started Wed Jun 22 15:35:02 2016


Gurobi 6.5.1 (mac64) logging started Wed Jun 22 15:36:32 2016


Gurobi 6.5.1 (mac64) logging started Wed Jun 22 15:38:48 2016


Gurobi 6.5.1 (mac64) logging started Wed Jun 22 15:38:57 2016


Gurobi 6.5.1 (mac64) logging started Wed Jun 22 15:39:37 2016


Gurobi 6.5.1 (mac64) logging started Wed Jun 22 15:39:59 2016


Gurobi 6.5.1 (mac64) logging started Wed Jun 22 15:40:20 2016


Gurobi 6.5.1 (mac64) logging started Wed Jun 22 15:40:28 2016


Gurobi 6.5.1 (mac64) logging started Wed Jun 22 15:40:43 2016


Gurobi 6.5.1 (mac64) logging started Wed Jun 22 15:40:54 2016


Gurobi 6.5.1 (mac64) logging started Wed Jun 22 15:41:17 2016


Gurobi 6.5.1 (mac64) logging started Wed Jun 22 15:41:25 2016


Gurobi 6.5.1 (mac64) logging started Wed Jun 22 15:44:46 2016


Gurobi 6.5.1 (mac64) logging started Wed Jun 22 15:46:43 2016


Gurobi 6.5.1 (mac64) logging started Wed Jun 22 15:48:50 2016


Gurobi 6.5.1 (mac64) logging started Wed Jun 22 15:52:22 2016


Gurobi 6.5.1 (mac64) logging started Wed Jun 22 15:54:05 2016


Gurobi 6.5.1 (mac64) logging started Wed Jun 22 15:54:54 2016


Gurobi 6.5.1 (mac64) logging started Wed Jun 22 15:55:15 2016


Gurobi 6.5.1 (mac64) logging started Wed Jun 22 15:56:03 2016


Gurobi 6.5.1 (mac64) logging started Wed Jun 22 15:58:34 2016


Gurobi 6.5.1 (mac64) logging started Wed Jun 22 15:59:14 2016


Gurobi 6.5.1 (mac64) logging started Wed Jun 22 15:59:25 2016


Gurobi 6.5.1 (mac64) logging started Wed Jun 22 16:00:25 2016


Gurobi 6.5.1 (mac64) logging started Wed Jun 22 16:00:33 2016


Gurobi 6.5.1 (mac64) logging started Wed Jun 22 16:00:59 2016


Gurobi 6.5.1 (mac64) logging started Wed Jun 22 16:01:21 2016


Gurobi 6.5.1 (mac64) logging started Wed Jun 22 16:15:54 2016


Gurobi 6.5.1 (mac64) logging started Wed Jun 22 16:16:20 2016


Gurobi 6.5.1 (mac64) logging started Wed Jun 22 16:21:09 2016


Gurobi 6.5.1 (mac64) logging started Thu Jun 23 10:06:14 2016


Gurobi 6.5.1 (mac64) logging started Thu Jun 23 10:12:56 2016


Gurobi 6.5.1 (mac64) logging started Thu Jun 23 10:13:19 2016


Gurobi 6.5.1 (mac64) logging started Thu Jun 23 10:14:02 2016


Gurobi 6.5.1 (mac64) logging started Thu Jun 23 10:15:22 2016


Gurobi 6.5.1 (mac64) logging started Thu Jun 23 10:16:41 2016


Gurobi 6.5.1 (mac64) logging started Thu Jun 23 10:17:13 2016


Gurobi 6.5.1 (mac64) logging started Thu Jun 23 10:20:37 2016


Gurobi 6.5.1 (mac64) logging started Thu Jun 23 10:20:44 2016


Gurobi 6.5.1 (mac64) logging started Thu Jun 23 10:24:13 2016


Gurobi 6.5.1 (mac64) logging started Thu Jun 23 10:24:27 2016


Gurobi 6.5.1 (mac64) logging started Thu Jun 23 10:24:57 2016


Gurobi 6.5.1 (mac64) logging started Thu Jun 23 10:28:15 2016


Gurobi 6.5.1 (mac64) logging started Thu Jun 23 10:31:22 2016


Gurobi 6.5.1 (mac64) logging started Thu Jun 23 10:31:31 2016


Gurobi 6.5.1 (mac64) logging started Thu Jun 23 10:31:46 2016


Gurobi 6.5.1 (mac64) logging started Thu Jun 23 10:32:10 2016


Gurobi 6.5.1 (mac64) logging started Thu Jun 23 10:32:37 2016


Gurobi 6.5.1 (mac64) logging started Thu Jun 23 10:33:09 2016


Gurobi 6.5.1 (mac64) logging started Thu Jun 23 10:34:18 2016


Gurobi 6.5.1 (mac64) logging started Thu Jun 23 10:40:36 2016


Gurobi 6.5.1 (mac64) logging started Thu Jun 23 10:40:45 2016


Gurobi 6.5.1 (mac64) logging started Thu Jun 23 10:40:54 2016


Gurobi 6.5.1 (mac64) logging started Thu Jun 23 10:41:13 2016


Gurobi 6.5.1 (mac64) logging started Thu Jun 23 10:41:26 2016


Gurobi 6.5.1 (mac64) logging started Thu Jun 23 10:41:34 2016


Gurobi 6.5.1 (mac64) logging started Thu Jun 23 10:41:42 2016


Gurobi 6.5.1 (mac64) logging started Thu Jun 23 10:41:56 2016


Gurobi 6.5.1 (mac64) logging started Thu Jun 23 10:42:08 2016


Gurobi 6.5.1 (mac64) logging started Thu Jun 23 10:42:49 2016


Gurobi 6.5.1 (mac64) logging started Thu Jun 23 10:43:32 2016


Gurobi 6.5.1 (mac64) logging started Thu Jun 23 10:43:40 2016


Gurobi 6.5.1 (mac64) logging started Thu Jun 23 10:43:52 2016


Gurobi 6.5.1 (mac64) logging started Thu Jun 23 10:45:22 2016


Gurobi 6.5.1 (mac64) logging started Thu Jun 23 10:45:42 2016


Gurobi 6.5.1 (mac64) logging started Thu Jun 23 10:46:12 2016


Gurobi 6.5.1 (mac64) logging started Thu Jun 23 10:59:39 2016


Gurobi 6.5.1 (mac64) logging started Thu Jun 23 10:59:52 2016


Gurobi 6.5.1 (mac64) logging started Thu Jun 23 11:00:04 2016


Gurobi 6.5.1 (mac64) logging started Thu Jun 23 11:18:16 2016


Gurobi 6.5.1 (mac64) logging started Thu Jun 23 11:18:19 2016


Gurobi 6.5.1 (mac64) logging started Thu Jun 23 11:18:26 2016


Gurobi 6.5.1 (mac64) logging started Thu Jun 23 11:18:28 2016


Gurobi 6.5.1 (mac64) logging started Thu Jun 23 11:18:33 2016


Gurobi 6.5.1 (mac64) logging started Thu Jun 23 11:18:47 2016


Gurobi 6.5.1 (mac64) logging started Thu Jun 23 11:18:52 2016


Gurobi 6.5.1 (mac64) logging started Thu Jun 23 11:19:16 2016


Gurobi 6.5.1 (mac64) logging started Thu Jun 23 11:20:43 2016


Gurobi 6.5.1 (mac64) logging started Thu Jun 23 11:20:50 2016


Gurobi 6.5.1 (mac64) logging started Thu Jun 23 11:31:55 2016


Gurobi 6.5.1 (mac64) logging started Thu Jun 23 11:32:16 2016


Gurobi 6.5.1 (mac64) logging started Thu Jun 23 11:33:27 2016


Gurobi 6.5.1 (mac64) logging started Thu Jun 23 11:33:52 2016


Gurobi 6.5.1 (mac64) logging started Thu Jun 23 11:34:08 2016


Gurobi 6.5.1 (mac64) logging started Thu Jun 23 11:36:47 2016


Gurobi 6.5.1 (mac64) logging started Thu Jun 23 11:37:06 2016


Gurobi 6.5.1 (mac64) logging started Thu Jun 23 11:41:00 2016


Gurobi 6.5.1 (mac64) logging started Thu Jun 23 11:41:25 2016


Gurobi 6.5.1 (mac64) logging started Thu Jun 23 11:41:57 2016


Gurobi 6.5.1 (mac64) logging started Thu Jun 23 11:42:10 2016


Gurobi 6.5.1 (mac64) logging started Thu Jun 23 11:42:51 2016


Gurobi 6.5.1 (mac64) logging started Thu Jun 23 11:43:01 2016


Gurobi 6.5.1 (mac64) logging started Thu Jun 23 11:43:25 2016


Gurobi 6.5.1 (mac64) logging started Thu Jun 23 11:43:43 2016


Gurobi 6.5.1 (mac64) logging started Thu Jun 23 11:44:12 2016


Gurobi 6.5.1 (mac64) logging started Thu Jun 23 11:44:52 2016


Gurobi 6.5.1 (mac64) logging started Thu Jun 23 11:45:55 2016


Gurobi 6.5.1 (mac64) logging started Thu Jun 23 11:46:17 2016


Gurobi 6.5.1 (mac64) logging started Thu Jun 23 11:46:32 2016


Gurobi 6.5.1 (mac64) logging started Thu Jun 23 11:47:15 2016


Gurobi 6.5.1 (mac64) logging started Thu Jun 23 13:19:52 2016


Gurobi 6.5.1 (mac64) logging started Thu Jun 23 13:21:03 2016


Gurobi 6.5.1 (mac64) logging started Thu Jun 23 13:21:15 2016


Gurobi 6.5.1 (mac64) logging started Thu Jun 23 13:21:21 2016


Gurobi 6.5.1 (mac64) logging started Thu Jun 23 13:21:34 2016


Gurobi 6.5.1 (mac64) logging started Thu Jun 23 13:21:38 2016


Gurobi 6.5.1 (mac64) logging started Thu Jun 23 13:21:50 2016


Gurobi 6.5.1 (mac64) logging started Thu Jun 23 13:22:25 2016


Gurobi 6.5.1 (mac64) logging started Thu Jun 23 13:32:32 2016


Gurobi 6.5.1 (mac64) logging started Thu Jun 23 13:38:55 2016


Gurobi 6.5.1 (mac64) logging started Thu Jun 23 13:39:10 2016


Gurobi 6.5.1 (mac64) logging started Fri Jun 24 14:03:55 2016

